p cnf 20 27
e 14 7 8 0
a 5 16 11 17 6 20 15 4 0
e 13 2 0
a 3 1 10 19 0
e 12 0
a 9 0
e 18 0
-7 -9 0
-3 0
19 13 0
-7 5 0
2 11 0
-6 -3 7 0
4 -20 14 0
17 -6 9 -19 15 0
9 0
-7 0
-3 0
-18 0
11 -1 0
18 11 20 0
8 0
-10 14 -11 0
-7 0
3 -19 0
2 0
-1 0
-20 13 0
4 -2 -1 0
8 1 -2 16 0
2 3 -13 -12 -10 -9 -8 -7 0
-15 11 -2 0
-11 0
-13 0
